12
0 93 33 63 40 52 83 39 13 36 10 35 
3 0 91 97 53 60 3 80 54 80 68 65 
93 30 0 83 13 9 24 80 42 56 15 67 
70 92 68 0 50 46 74 86 55 36 33 55 
23 42 36 88 0 38 36 28 37 81 23 52 
21 55 91 89 67 0 41 10 60 89 8 58 
69 84 45 61 30 81 0 71 83 5 98 62 
100 55 68 59 26 25 35 0 3 49 7 14 
77 45 98 45 4 12 62 72 0 100 41 53 
6 43 68 11 70 87 30 58 61 0 47 11 
43 48 19 31 2 71 60 10 51 57 0 99 
44 90 50 17 100 67 31 91 98 93 81 0 
